
Log started (V12.8.0.0) Fri Apr 28 14:03:21 2023

Warning, line 4: Characters after RHS value are ignored.
Warning, line 1018: '+' not valid identifier.
Warning, line 1018: '+' not valid identifier.
Warning, line 1018: '+' not valid identifier.
Warning, line 1018: '+' not valid identifier.
Warning, line 1018: '+' not valid identifier.
Warning, line 1018: '+' not valid identifier.
Warning, line 1018: '+' not valid identifier.
Warning, line 1018: '+' not valid identifier.
Warning, line 1018: '+' not valid identifier.
Warning, line 1018: '+' not valid identifier.
Warning, line 1018: '+' not valid identifier.
Warning, line 1018: '+' not valid identifier.
Warning, line 1018: '+' not valid identifier.
Warning, line 1018: '+' not valid identifier.
Warning, line 1018: '+' not valid identifier.
Warning, line 1018: '+' not valid identifier.
Warning, line 1018: '+' not valid identifier.
Warning, line 1018: '+' not valid identifier.
Warning, line 1018: '+' not valid identifier.
Warning, line 1018: '+' not valid identifier.
Warning: 'End' missing.
338 name warnings not printed.

Problem '/home/ahmad/Desktop/astran-new-cmd/bin/Debug/ILPmodel.lp' read.
Read time = 0.01 sec. (0.09 ticks)
Tried aggregator 4 times.
MIP Presolve eliminated 343 rows and 109 columns.
MIP Presolve modified 135 coefficients.
Aggregator did 123 substitutions.
Reduced MIP has 547 rows, 360 columns, and 1545 nonzeros.
Reduced MIP has 167 binaries, 193 generals, 0 SOSs, and 0 indicators.
Presolve time = 0.01 sec. (2.86 ticks)
Probing time = 0.00 sec. (0.18 ticks)
Cover probing fixed 0 vars, tightened 3 bounds.
Tried aggregator 1 time.
MIP Presolve eliminated 2 rows and 0 columns.
MIP Presolve modified 48 coefficients.
Reduced MIP has 545 rows, 360 columns, and 1541 nonzeros.
Reduced MIP has 167 binaries, 193 generals, 0 SOSs, and 0 indicators.
Presolve time = 0.00 sec. (0.91 ticks)
Probing time = 0.00 sec. (0.18 ticks)
Clique table members: 41.
MIP emphasis: balance optimality and feasibility.
MIP search method: dynamic search.
Parallel mode: deterministic, using up to 4 threads.
Root relaxation solution time = 0.00 sec. (2.46 ticks)

        Nodes                                         Cuts/
   Node  Left     Objective  IInf  Best Integer    Best Bound    ItCnt     Gap

      0     0   607236.9909   158                 607236.9909      175         
      0     0   607357.1256    83                    Cuts: 58      214         
      0     0   607369.6503   117                    Cuts: 24      246         
      0     0   607369.8098   140                     Cuts: 4      257         
      0     0   607369.8098   140                     Cuts: 3      259         
*     0+    0                       611284.0000   607369.8098             0.64%
*     0+    0                       607592.0000   607369.8098             0.04%
*     0+    0                       607569.0000   607375.3466             0.03%
      0     2   607369.8883   114   607569.0000   607375.3466      259    0.03%
Elapsed time = 0.18 sec. (92.72 ticks, tree = 0.01 MB, solutions = 3)
*   400+  181                       607473.0000   607378.7161             0.02%
*   468+  176                       607457.0000   607378.7161             0.01%
*   476+  168                       607434.0000   607378.7161             0.01%

Implied bound cuts applied:  13
Mixed integer rounding cuts applied:  5
Zero-half cuts applied:  3
Gomory fractional cuts applied:  33

Root node processing (before b&c):
  Real time             =    0.17 sec. (92.50 ticks)
Parallel b&c, 4 threads:
  Real time             =    0.12 sec. (52.94 ticks)
  Sync time (average)   =    0.03 sec.
  Wait time (average)   =    0.00 sec.
                          ------------
Total (root+branch&cut) =    0.29 sec. (145.43 ticks)

Solution pool: 9 solutions saved.

MIP - Integer optimal, tolerance (0.0001/1e-06):  Objective =  6.0743400000e+05
Current MIP best bound =  6.0737883338e+05 (gap = 55.1666, 0.01%)
Solution time =    0.29 sec.  Iterations = 1881  Nodes = 489 (177)
Deterministic time = 145.43 ticks  (493.98 ticks/sec)


Incumbent solution written to file '/home/ahmad/Desktop/astran-new-cmd/bin/Debug/xmlsol.sol'.

Log started (V12.8.0.0) Fri Apr 28 14:03:22 2023

Warning, line 4: Characters after RHS value are ignored.
Warning, line 1018: '+' not valid identifier.
Warning, line 1018: '+' not valid identifier.
Warning, line 1018: '+' not valid identifier.
Warning, line 1018: '+' not valid identifier.
Warning, line 1018: '+' not valid identifier.
Warning, line 1018: '+' not valid identifier.
Warning, line 1018: '+' not valid identifier.
Warning, line 1018: '+' not valid identifier.
Warning, line 1018: '+' not valid identifier.
Warning, line 1018: '+' not valid identifier.
Warning, line 1018: '+' not valid identifier.
Warning, line 1018: '+' not valid identifier.
Warning, line 1018: '+' not valid identifier.
Warning, line 1018: '+' not valid identifier.
Warning, line 1018: '+' not valid identifier.
Warning, line 1018: '+' not valid identifier.
Warning, line 1018: '+' not valid identifier.
Warning, line 1018: '+' not valid identifier.
Warning, line 1018: '+' not valid identifier.
Warning, line 1018: '+' not valid identifier.
Warning: 'End' missing.
338 name warnings not printed.

Problem '/home/ahmad/Desktop/astran-new-cmd/bin/Debug/ILPmodel.lp' read.
Read time = 0.00 sec. (0.09 ticks)
Tried aggregator 4 times.
MIP Presolve eliminated 343 rows and 109 columns.
MIP Presolve modified 135 coefficients.
Aggregator did 123 substitutions.
Reduced MIP has 547 rows, 360 columns, and 1545 nonzeros.
Reduced MIP has 167 binaries, 193 generals, 0 SOSs, and 0 indicators.
Presolve time = 0.01 sec. (2.88 ticks)
Probing time = 0.00 sec. (0.18 ticks)
Cover probing fixed 0 vars, tightened 3 bounds.
Tried aggregator 1 time.
MIP Presolve eliminated 2 rows and 0 columns.
MIP Presolve modified 48 coefficients.
Reduced MIP has 545 rows, 360 columns, and 1541 nonzeros.
Reduced MIP has 167 binaries, 193 generals, 0 SOSs, and 0 indicators.
Presolve time = 0.00 sec. (0.91 ticks)
Probing time = 0.00 sec. (0.17 ticks)
Clique table members: 41.
MIP emphasis: balance optimality and feasibility.
MIP search method: dynamic search.
Parallel mode: deterministic, using up to 4 threads.
Root relaxation solution time = 0.00 sec. (2.37 ticks)

        Nodes                                         Cuts/
   Node  Left     Objective  IInf  Best Integer    Best Bound    ItCnt     Gap

      0     0   607251.4770   140                 607251.4770      177         
      0     0   607382.1694    52                    Cuts: 47      207         
      0     0   607395.6471    54                    Cuts: 17      230         
      0     0   607395.9131    54                     Cuts: 2      232         
*     0+    0                       607736.0000   607395.9131             0.06%
*     0+    0                       607689.0000   607395.9131             0.05%
      0     2   607395.9131    45   607689.0000   607395.9131      232    0.05%
Elapsed time = 0.10 sec. (39.83 ticks, tree = 0.01 MB, solutions = 2)
*    25+    3                       607681.0000   607397.6397             0.05%
*    31+    2                       607669.0000   607397.6397             0.04%
*   167   102      integral     0   607618.0000   607407.3680      699    0.03%
*   203+  122                       607575.0000   607407.3680             0.03%
*   214+  138                       607519.0000   607407.3680             0.02%
*   282+  149                       607471.0000   607407.3680             0.01%
*   291   107      integral     0   607466.0000   607407.3680     1253    0.01%

Implied bound cuts applied:  17
Mixed integer rounding cuts applied:  6
Zero-half cuts applied:  3
Gomory fractional cuts applied:  20

Root node processing (before b&c):
  Real time             =    0.10 sec. (39.61 ticks)
Parallel b&c, 4 threads:
  Real time             =    0.06 sec. (29.14 ticks)
  Sync time (average)   =    0.01 sec.
  Wait time (average)   =    0.00 sec.
                          ------------
Total (root+branch&cut) =    0.16 sec. (68.74 ticks)

Solution pool: 9 solutions saved.

MIP - Integer optimal, tolerance (0.0001/1e-06):  Objective =  6.0746600000e+05
Current MIP best bound =  6.0740736805e+05 (gap = 58.632, 0.01%)
Solution time =    0.16 sec.  Iterations = 1482  Nodes = 325 (111)
Deterministic time = 68.75 ticks  (427.85 ticks/sec)


Incumbent solution written to file '/home/ahmad/Desktop/astran-new-cmd/bin/Debug/xmlsol.sol'.

Log started (V12.8.0.0) Fri Apr 28 14:07:12 2023

Warning, line 4: Characters after RHS value are ignored.
Warning, line 1348: '+' not valid identifier.
Warning, line 1348: '+' not valid identifier.
Warning, line 1348: '+' not valid identifier.
Warning, line 1348: '+' not valid identifier.
Warning, line 1348: '+' not valid identifier.
Warning, line 1348: '+' not valid identifier.
Warning, line 1348: '+' not valid identifier.
Warning, line 1348: '+' not valid identifier.
Warning, line 1348: '+' not valid identifier.
Warning, line 1348: '+' not valid identifier.
Warning, line 1348: '+' not valid identifier.
Warning, line 1348: '+' not valid identifier.
Warning, line 1348: '+' not valid identifier.
Warning, line 1348: '+' not valid identifier.
Warning, line 1348: '+' not valid identifier.
Warning, line 1348: '+' not valid identifier.
Warning, line 1348: '+' not valid identifier.
Warning, line 1348: '+' not valid identifier.
Warning, line 1348: '+' not valid identifier.
Warning, line 1348: '+' not valid identifier.
Warning: 'End' missing.
531 name warnings not printed.

Problem '/home/ahmad/Desktop/astran-new-cmd/bin/Debug/ILPmodel.lp' read.
Read time = 0.01 sec. (0.12 ticks)
Tried aggregator 4 times.
MIP Presolve eliminated 396 rows and 114 columns.
MIP Presolve modified 185 coefficients.
Aggregator did 128 substitutions.
Reduced MIP has 819 rows, 489 columns, and 2319 nonzeros.
Reduced MIP has 223 binaries, 266 generals, 0 SOSs, and 0 indicators.
Presolve time = 0.01 sec. (4.01 ticks)
Probing fixed 4 vars, tightened 0 bounds.
Probing time = 0.00 sec. (0.33 ticks)
Cover probing fixed 0 vars, tightened 3 bounds.
Tried aggregator 2 times.
MIP Presolve eliminated 9 rows and 7 columns.
MIP Presolve modified 86 coefficients.
Aggregator did 1 substitutions.
Reduced MIP has 809 rows, 481 columns, and 2291 nonzeros.
Reduced MIP has 215 binaries, 266 generals, 0 SOSs, and 0 indicators.
Presolve time = 0.00 sec. (2.08 ticks)
Probing time = 0.00 sec. (0.30 ticks)
Clique table members: 55.
MIP emphasis: balance optimality and feasibility.
MIP search method: dynamic search.
Parallel mode: deterministic, using up to 4 threads.
Root relaxation solution time = 0.01 sec. (4.01 ticks)

        Nodes                                         Cuts/
   Node  Left     Objective  IInf  Best Integer    Best Bound    ItCnt     Gap

      0     0   607123.1630   239                 607123.1630      256         
      0     0   607344.0560   149                    Cuts: 76      313         
      0     0   607383.1355   183                    Cuts: 35      363         
      0     0   607383.6184   175                    Cuts: 10      376         
      0     0   607383.6194   174                 ZeroHalf: 4      382         
      0     0   607387.5752   176                     Cuts: 5      388         
*     0+    0                       608215.0000   607387.5752             0.14%
      0     2   607390.6086   171   608215.0000   607387.5752      391    0.14%
Elapsed time = 0.21 sec. (98.82 ticks, tree = 0.01 MB, solutions = 1)
*    10+    2                       608197.0000   607390.6086             0.13%
*   106+   74                       608021.0000   607561.2218             0.08%
*   281+  160                       607913.0000   607622.6891             0.05%
*   497   253      integral     0   607887.0000   607624.0023     2124    0.04%
*   762+  424                       607876.0000   607624.0292             0.04%
*   786+  377                       607753.0000   607624.0292             0.02%
   2246   750   607748.6298    67   607753.0000   607627.4829     9374    0.02%

Cover cuts applied:  1
Implied bound cuts applied:  11
Flow cuts applied:  10
Mixed integer rounding cuts applied:  59
Zero-half cuts applied:  2
Gomory fractional cuts applied:  38

Root node processing (before b&c):
  Real time             =    0.21 sec. (98.49 ticks)
Parallel b&c, 4 threads:
  Real time             =    0.96 sec. (551.66 ticks)
  Sync time (average)   =    0.10 sec.
  Wait time (average)   =    0.00 sec.
                          ------------
Total (root+branch&cut) =    1.17 sec. (650.15 ticks)

Solution pool: 10 solutions saved.

MIP - Integer optimal, tolerance (0.0001/1e-06):  Objective =  6.0775300000e+05
Current MIP best bound =  6.0769237424e+05 (gap = 60.6258, 0.01%)
Solution time =    1.18 sec.  Iterations = 19153  Nodes = 3746 (1146)
Deterministic time = 650.15 ticks  (553.06 ticks/sec)


Incumbent solution written to file '/home/ahmad/Desktop/astran-new-cmd/bin/Debug/xmlsol.sol'.

Log started (V12.8.0.0) Fri Apr 28 14:07:14 2023

Warning, line 4: Characters after RHS value are ignored.
Warning, line 1348: '+' not valid identifier.
Warning, line 1348: '+' not valid identifier.
Warning, line 1348: '+' not valid identifier.
Warning, line 1348: '+' not valid identifier.
Warning, line 1348: '+' not valid identifier.
Warning, line 1348: '+' not valid identifier.
Warning, line 1348: '+' not valid identifier.
Warning, line 1348: '+' not valid identifier.
Warning, line 1348: '+' not valid identifier.
Warning, line 1348: '+' not valid identifier.
Warning, line 1348: '+' not valid identifier.
Warning, line 1348: '+' not valid identifier.
Warning, line 1348: '+' not valid identifier.
Warning, line 1348: '+' not valid identifier.
Warning, line 1348: '+' not valid identifier.
Warning, line 1348: '+' not valid identifier.
Warning, line 1348: '+' not valid identifier.
Warning, line 1348: '+' not valid identifier.
Warning, line 1348: '+' not valid identifier.
Warning, line 1348: '+' not valid identifier.
Warning: 'End' missing.
531 name warnings not printed.

Problem '/home/ahmad/Desktop/astran-new-cmd/bin/Debug/ILPmodel.lp' read.
Read time = 0.01 sec. (0.12 ticks)
Tried aggregator 4 times.
MIP Presolve eliminated 396 rows and 114 columns.
MIP Presolve modified 185 coefficients.
Aggregator did 128 substitutions.
Reduced MIP has 819 rows, 489 columns, and 2319 nonzeros.
Reduced MIP has 223 binaries, 266 generals, 0 SOSs, and 0 indicators.
Presolve time = 0.01 sec. (4.01 ticks)
Probing fixed 4 vars, tightened 0 bounds.
Probing time = 0.00 sec. (0.33 ticks)
Cover probing fixed 0 vars, tightened 3 bounds.
Tried aggregator 2 times.
MIP Presolve eliminated 9 rows and 7 columns.
MIP Presolve modified 86 coefficients.
Aggregator did 1 substitutions.
Reduced MIP has 809 rows, 481 columns, and 2291 nonzeros.
Reduced MIP has 215 binaries, 266 generals, 0 SOSs, and 0 indicators.
Presolve time = 0.00 sec. (2.08 ticks)
Probing time = 0.00 sec. (0.30 ticks)
Clique table members: 55.
MIP emphasis: balance optimality and feasibility.
MIP search method: dynamic search.
Parallel mode: deterministic, using up to 4 threads.
Root relaxation solution time = 0.01 sec. (4.01 ticks)

        Nodes                                         Cuts/
   Node  Left     Objective  IInf  Best Integer    Best Bound    ItCnt     Gap

      0     0   607123.1630   239                 607123.1630      256         
      0     0   607344.0560   149                    Cuts: 76      313         
      0     0   607383.1355   183                    Cuts: 35      363         
      0     0   607383.6184   175                    Cuts: 10      376         
      0     0   607383.6194   174                 ZeroHalf: 4      382         
      0     0   607387.5752   176                     Cuts: 5      388         
*     0+    0                       608215.0000   607387.5752             0.14%
      0     2   607390.6086   171   608215.0000   607387.5752      391    0.14%
Elapsed time = 0.20 sec. (98.82 ticks, tree = 0.01 MB, solutions = 1)
*    10+    2                       608197.0000   607390.6086             0.13%
*   106+   74                       608021.0000   607561.2218             0.08%
*   281+  160                       607913.0000   607622.6891             0.05%
*   497   253      integral     0   607887.0000   607624.0023     2124    0.04%
*   762+  424                       607876.0000   607624.0292             0.04%
*   786+  377                       607753.0000   607624.0292             0.02%
   2246   750   607748.6298    67   607753.0000   607627.4829     9374    0.02%

Cover cuts applied:  1
Implied bound cuts applied:  11
Flow cuts applied:  10
Mixed integer rounding cuts applied:  59
Zero-half cuts applied:  2
Gomory fractional cuts applied:  38

Root node processing (before b&c):
  Real time             =    0.19 sec. (98.49 ticks)
Parallel b&c, 4 threads:
  Real time             =    0.91 sec. (551.66 ticks)
  Sync time (average)   =    0.09 sec.
  Wait time (average)   =    0.00 sec.
                          ------------
Total (root+branch&cut) =    1.11 sec. (650.15 ticks)

Solution pool: 10 solutions saved.

MIP - Integer optimal, tolerance (0.0001/1e-06):  Objective =  6.0775300000e+05
Current MIP best bound =  6.0769237424e+05 (gap = 60.6258, 0.01%)
Solution time =    1.11 sec.  Iterations = 19153  Nodes = 3746 (1146)
Deterministic time = 650.15 ticks  (586.11 ticks/sec)


Incumbent solution written to file '/home/ahmad/Desktop/astran-new-cmd/bin/Debug/xmlsol.sol'.
